20
90.0
0 19 4.68 4.47
1 18 4.39 5.94
2 17 5.29 4.35
3 16 5.19 6.62
4 15 5.33 5.4
5 14 6.29 4.57
6 13 4.38 4.77
7 12 4.42 5.5
8 11 5.36 4.91
9 10 3.6 3.8
10 9 4.44 4.33
11 8 3.75 6.12
12 7 5.57 4.14
13 6 3.83 5.33
14 5 3.2 3.4
15 4 4.75 4.75
16 3 8.0 8.33
17 2 5.5 4.5
18 1 7.0 3.0
